
Gurobi 10.0.1 (win64) logging started Mon Oct  9 07:42:50 2023

Set parameter LogFile to value "./results//log/FTQL_makespan_heurTrue.log"
Gurobi Optimizer version 10.0.1 build v10.0.1rc0 (win64)

CPU model: AMD Ryzen 7 3700X 8-Core Processor, instruction set [SSE2|AVX|AVX2]
Thread count: 8 physical cores, 16 logical processors, using up to 16 threads

Optimize a model with 195 rows, 625 columns and 664 nonzeros
Model fingerprint: 0xce05131d
Variable types: 0 continuous, 625 integer (600 binary)
Coefficient statistics:
  Matrix range     [1e+00, 1e+07]
  Objective range  [1e+00, 1e+00]
  Bounds range     [1e+00, 1e+00]
  RHS range        [1e+00, 3e+07]

Warning: Completing partial solution with 577 unfixed non-continuous variables out of 625
User MIP start did not produce a new incumbent solution
User MIP start violates constraint initial_start_time_job0_stage0_machine4_constraint by 420.000000000

Presolve removed 78 rows and 552 columns
Presolve time: 0.00s
Presolved: 117 rows, 73 columns, 332 nonzeros
Variable types: 0 continuous, 73 integer (49 binary)

Root relaxation: objective 5.088000e+04, 37 iterations, 0.00 seconds (0.00 work units)
Another try with MIP start

    Nodes    |    Current Node    |     Objective Bounds      |     Work
 Expl Unexpl |  Obj  Depth IntInf | Incumbent    BestBd   Gap | It/Node Time

H    0     0                    83642.000000 50880.0000  39.2%     -    0s
     0     0 50880.0000    0   27 83642.0000 50880.0000  39.2%     -    0s
     0     0 64720.0000    0   40 83642.0000 64720.0000  22.6%     -    0s
     0     0 64720.0000    0   41 83642.0000 64720.0000  22.6%     -    0s
     0     0 64799.0000    0   24 83642.0000 64799.0000  22.5%     -    0s
H    0     0                    81074.000000 64799.0000  20.1%     -    0s
H    0     0                    79317.000000 64799.0000  18.3%     -    0s
H    0     0                    76118.000000 64799.0000  14.9%     -    0s
     0     0 64799.0000    0   28 76118.0000 64799.0000  14.9%     -    0s
     0     0 64799.0000    0   27 76118.0000 64799.0000  14.9%     -    0s
     0     0 64800.2830    0   30 76118.0000 64800.2830  14.9%     -    0s
     0     0 64874.9596    0   36 76118.0000 64874.9596  14.8%     -    0s
     0     0 64879.0135    0   38 76118.0000 64879.0135  14.8%     -    0s
     0     0 64879.0135    0   38 76118.0000 64879.0135  14.8%     -    0s
     0     0 64879.0135    0   39 76118.0000 64879.0135  14.8%     -    0s
H    0     0                    74889.000000 64879.0135  13.4%     -    0s
     0     0 64879.0135    0   38 74889.0000 64879.0135  13.4%     -    0s
     0     0 64900.9295    0   39 74889.0000 64900.9295  13.3%     -    0s
     0     0 64900.9295    0   39 74889.0000 64900.9295  13.3%     -    0s
     0     2 64900.9295    0   38 74889.0000 64900.9295  13.3%     -    0s
H  454   123                    74729.000000 66806.4190  10.6%   9.4    0s
*  489   131              17    74452.000000 66873.4425  10.2%   9.3    0s

Cutting planes:
  Implied bound: 49
  MIR: 10
  RLT: 11
  Relax-and-lift: 35

Explored 1381 nodes (12292 simplex iterations) in 0.70 seconds (0.07 work units)
Thread count was 16 (of 16 available processors)

Solution count 7: 74452 74729 74889 ... 83642

Optimal solution found (tolerance 1.00e-04)
Best objective 7.445200000000e+04, best bound 7.445200000000e+04, gap 0.0000%
Warning: constraint name "precedence between 0,0 to 1,1 if x_[0,0,1,1,1]=0, i.e. 1,1 before 0,0" has a space
Warning: constraint name "precedence between 0,0 to 1,1 if x_[0,0,1,1,1]=0, i.e. 1,1 before 0,0" has a space
Warning: default constraint names used to write mps file
